c description: Subset cardinality formula for fast_gnp_random_graph(6,8,0.9)
c generator: CNFgen (0.9.0)
c copyright: (C) 2012-2020 Massimo Lauria <massimo.lauria@uniroma1.it>
c url: https://massimolauria.net/cnfgen
c
p cnf 43 326
1 2 3 4 0
1 2 3 5 0
1 2 3 6 0
1 2 3 7 0
1 2 4 5 0
1 2 4 6 0
1 2 4 7 0
1 2 5 6 0
1 2 5 7 0
1 2 6 7 0
1 3 4 5 0
1 3 4 6 0
1 3 4 7 0
1 3 5 6 0
1 3 5 7 0
1 3 6 7 0
1 4 5 6 0
1 4 5 7 0
1 4 6 7 0
1 5 6 7 0
2 3 4 5 0
2 3 4 6 0
2 3 4 7 0
2 3 5 6 0
2 3 5 7 0
2 3 6 7 0
2 4 5 6 0
2 4 5 7 0
2 4 6 7 0
2 5 6 7 0
3 4 5 6 0
3 4 5 7 0
3 4 6 7 0
3 5 6 7 0
4 5 6 7 0
8 9 10 11 0
8 9 10 12 0
8 9 10 13 0
8 9 11 12 0
8 9 11 13 0
8 9 12 13 0
8 10 11 12 0
8 10 11 13 0
8 10 12 13 0
8 11 12 13 0
9 10 11 12 0
9 10 11 13 0
9 10 12 13 0
9 11 12 13 0
10 11 12 13 0
14 15 16 17 18 0
14 15 16 17 19 0
14 15 16 17 20 0
14 15 16 17 21 0
14 15 16 18 19 0
14 15 16 18 20 0
14 15 16 18 21 0
14 15 16 19 20 0
14 15 16 19 21 0
14 15 16 20 21 0
14 15 17 18 19 0
14 15 17 18 20 0
14 15 17 18 21 0
14 15 17 19 20 0
14 15 17 19 21 0
14 15 17 20 21 0
14 15 18 19 20 0
14 15 18 19 21 0
14 15 18 20 21 0
14 15 19 20 21 0
14 16 17 18 19 0
14 16 17 18 20 0
14 16 17 18 21 0
14 16 17 19 20 0
14 16 17 19 21 0
14 16 17 20 21 0
14 16 18 19 20 0
14 16 18 19 21 0
14 16 18 20 21 0
14 16 19 20 21 0
14 17 18 19 20 0
14 17 18 19 21 0
14 17 18 20 21 0
14 17 19 20 21 0
14 18 19 20 21 0
15 16 17 18 19 0
15 16 17 18 20 0
15 16 17 18 21 0
15 16 17 19 20 0
15 16 17 19 21 0
15 16 17 20 21 0
15 16 18 19 20 0
15 16 18 19 21 0
15 16 18 20 21 0
15 16 19 20 21 0
15 17 18 19 20 0
15 17 18 19 21 0
15 17 18 20 21 0
15 17 19 20 21 0
15 18 19 20 21 0
16 17 18 19 20 0
16 17 18 19 21 0
16 17 18 20 21 0
16 17 19 20 21 0
16 18 19 20 21 0
17 18 19 20 21 0
22 23 24 25 0
22 23 24 26 0
22 23 24 27 0
22 23 24 28 0
22 23 25 26 0
22 23 25 27 0
22 23 25 28 0
22 23 26 27 0
22 23 26 28 0
22 23 27 28 0
22 24 25 26 0
22 24 25 27 0
22 24 25 28 0
22 24 26 27 0
22 24 26 28 0
22 24 27 28 0
22 25 26 27 0
22 25 26 28 0
22 25 27 28 0
22 26 27 28 0
23 24 25 26 0
23 24 25 27 0
23 24 25 28 0
23 24 26 27 0
23 24 26 28 0
23 24 27 28 0
23 25 26 27 0
23 25 26 28 0
23 25 27 28 0
23 26 27 28 0
24 25 26 27 0
24 25 26 28 0
24 25 27 28 0
24 26 27 28 0
25 26 27 28 0
29 30 31 32 0
29 30 31 33 0
29 30 31 34 0
29 30 31 35 0
29 30 32 33 0
29 30 32 34 0
29 30 32 35 0
29 30 33 34 0
29 30 33 35 0
29 30 34 35 0
29 31 32 33 0
29 31 32 34 0
29 31 32 35 0
29 31 33 34 0
29 31 33 35 0
29 31 34 35 0
29 32 33 34 0
29 32 33 35 0
29 32 34 35 0
29 33 34 35 0
30 31 32 33 0
30 31 32 34 0
30 31 32 35 0
30 31 33 34 0
30 31 33 35 0
30 31 34 35 0
30 32 33 34 0
30 32 33 35 0
30 32 34 35 0
30 33 34 35 0
31 32 33 34 0
31 32 33 35 0
31 32 34 35 0
31 33 34 35 0
32 33 34 35 0
36 37 38 39 40 0
36 37 38 39 41 0
36 37 38 39 42 0
36 37 38 39 43 0
36 37 38 40 41 0
36 37 38 40 42 0
36 37 38 40 43 0
36 37 38 41 42 0
36 37 38 41 43 0
36 37 38 42 43 0
36 37 39 40 41 0
36 37 39 40 42 0
36 37 39 40 43 0
36 37 39 41 42 0
36 37 39 41 43 0
36 37 39 42 43 0
36 37 40 41 42 0
36 37 40 41 43 0
36 37 40 42 43 0
36 37 41 42 43 0
36 38 39 40 41 0
36 38 39 40 42 0
36 38 39 40 43 0
36 38 39 41 42 0
36 38 39 41 43 0
36 38 39 42 43 0
36 38 40 41 42 0
36 38 40 41 43 0
36 38 40 42 43 0
36 38 41 42 43 0
36 39 40 41 42 0
36 39 40 41 43 0
36 39 40 42 43 0
36 39 41 42 43 0
36 40 41 42 43 0
37 38 39 40 41 0
37 38 39 40 42 0
37 38 39 40 43 0
37 38 39 41 42 0
37 38 39 41 43 0
37 38 39 42 43 0
37 38 40 41 42 0
37 38 40 41 43 0
37 38 40 42 43 0
37 38 41 42 43 0
37 39 40 41 42 0
37 39 40 41 43 0
37 39 40 42 43 0
37 39 41 42 43 0
37 40 41 42 43 0
38 39 40 41 42 0
38 39 40 41 43 0
38 39 40 42 43 0
38 39 41 42 43 0
38 40 41 42 43 0
39 40 41 42 43 0
-1 -8 -14 -22 0
-1 -8 -14 -29 0
-1 -8 -14 -36 0
-1 -8 -22 -29 0
-1 -8 -22 -36 0
-1 -8 -29 -36 0
-1 -14 -22 -29 0
-1 -14 -22 -36 0
-1 -14 -29 -36 0
-1 -22 -29 -36 0
-8 -14 -22 -29 0
-8 -14 -22 -36 0
-8 -14 -29 -36 0
-8 -22 -29 -36 0
-14 -22 -29 -36 0
-2 -9 -15 -23 0
-2 -9 -15 -30 0
-2 -9 -15 -37 0
-2 -9 -23 -30 0
-2 -9 -23 -37 0
-2 -9 -30 -37 0
-2 -15 -23 -30 0
-2 -15 -23 -37 0
-2 -15 -30 -37 0
-2 -23 -30 -37 0
-9 -15 -23 -30 0
-9 -15 -23 -37 0
-9 -15 -30 -37 0
-9 -23 -30 -37 0
-15 -23 -30 -37 0
-3 -16 -24 0
-3 -16 -31 0
-3 -16 -38 0
-3 -24 -31 0
-3 -24 -38 0
-3 -31 -38 0
-16 -24 -31 0
-16 -24 -38 0
-16 -31 -38 0
-24 -31 -38 0
-4 -17 -25 0
-4 -17 -32 0
-4 -17 -39 0
-4 -25 -32 0
-4 -25 -39 0
-4 -32 -39 0
-17 -25 -32 0
-17 -25 -39 0
-17 -32 -39 0
-25 -32 -39 0
-5 -10 -18 -26 0
-5 -10 -18 -33 0
-5 -10 -18 -40 0
-5 -10 -26 -33 0
-5 -10 -26 -40 0
-5 -10 -33 -40 0
-5 -18 -26 -33 0
-5 -18 -26 -40 0
-5 -18 -33 -40 0
-5 -26 -33 -40 0
-10 -18 -26 -33 0
-10 -18 -26 -40 0
-10 -18 -33 -40 0
-10 -26 -33 -40 0
-18 -26 -33 -40 0
-6 -11 -19 -27 0
-6 -11 -19 -34 0
-6 -11 -19 -41 0
-6 -11 -27 -34 0
-6 -11 -27 -41 0
-6 -11 -34 -41 0
-6 -19 -27 -34 0
-6 -19 -27 -41 0
-6 -19 -34 -41 0
-6 -27 -34 -41 0
-11 -19 -27 -34 0
-11 -19 -27 -41 0
-11 -19 -34 -41 0
-11 -27 -34 -41 0
-19 -27 -34 -41 0
-12 -20 -28 0
-12 -20 -35 0
-12 -20 -42 0
-12 -28 -35 0
-12 -28 -42 0
-12 -35 -42 0
-20 -28 -35 0
-20 -28 -42 0
-20 -35 -42 0
-28 -35 -42 0
-7 -13 -21 0
-7 -13 -43 0
-7 -21 -43 0
-13 -21 -43 0